22017.0
752,1422,278,97,1330,977,1425,1522,46,707,1633,1681,163,589,887,217,1993,1186,1940,997,1545,1406,1567,389,479,1617,1985,1206,669,1945,232,675,1733,1119,662,1815,169,1648,1351,1890,597,668,1710,265,1547,583,268,273,1293,1942,938,794,292,758,1774,1261,1224,343,157,106,1572,1968,578,1561,767,113,1463,490,1657,1100,1196,1877,1550,1984,895,274,1436,1267,838,538,1149,1656,498,663,833,1146,1193,1369,1001,294,29,1540,757,946,1451,323,952,1660,271,1731,883,1007,1835,926,574,764,423,1605,1353,852,1379,1474,1637,1464,12,721,1385,20,1198,1471,1599,1615
